Li S 
1.34
  12.9266719999999999   0.0000000000000000   0.0000000000000000
   0.0000000000000000   9.6950040000000008   0.0000000000000000
   0.0000000000000000   0.0000000000000000   9.1379999999999999
Li S 
1  48  
Selective Dynamics
Direct
  0.3750000000000000  0.5000000000000000  0.2500000000000000 T T T
  0.1250000000000000  0.1666670000000000  0.0000000000000000 F F F
  0.0000000000000000  0.0000000000000000  0.2500000000000000 F F F
  0.3750000000000000  0.1666670000000000  0.0000000000000000 F F F
  0.2500000000000000  0.0000000000000000  0.2500000000000000 F F F
  0.6250000000000000  0.1666670000000000  0.0000000000000000 F F F
  0.5000000000000000  0.0000000000000000  0.2500000000000000 F F F
  0.8750000000000000  0.1666670000000000  0.0000000000000000 F F F
  0.7500000000000000  0.0000000000000000  0.2500000000000000 F F F
  0.1250000000000000  0.5000000000000000  0.0000000000000000 F F F
  0.0000000000000000  0.3333330000000000  0.2500000000000000 F F F
  0.3750000000000000  0.5000000000000000  0.0000000000000000 F F F
  0.2500000000000000  0.3333330000000000  0.2500000000000000 F F F
  0.6250000000000000  0.5000000000000000  0.0000000000000000 F F F
  0.5000000000000000  0.3333330000000000  0.2500000000000000 F F F
  0.8750000000000000  0.5000000000000000  0.0000000000000000 F F F
  0.7500000000000000  0.3333330000000000  0.2500000000000000 F F F
  0.1250000000000000  0.8333330000000000  0.0000000000000000 F F F
  0.0000000000000000  0.6666670000000000  0.2500000000000000 F F F
  0.3750000000000000  0.8333330000000000  0.0000000000000000 F F F
  0.2500000000000000  0.6666670000000000  0.2500000000000000 F F F
  0.6250000000000000  0.8333330000000000  0.0000000000000000 F F F
  0.5000000000000000  0.6666670000000000  0.2500000000000000 F F F
  0.8750000000000000  0.8333330000000000  0.0000000000000000 F F F
  0.7500000000000000  0.6666670000000000  0.2500000000000000 F F F
  0.1250000000000000  0.1666670000000000  0.5000000000000000 F F F
  0.0000000000000000  0.0000000000000000  0.7500000000000000 F F F
  0.3750000000000000  0.1666670000000000  0.5000000000000000 F F F
  0.2500000000000000  0.0000000000000000  0.7500000000000000 F F F
  0.6250000000000000  0.1666670000000000  0.5000000000000000 F F F
  0.5000000000000000  0.0000000000000000  0.7500000000000000 F F F
  0.8750000000000000  0.1666670000000000  0.5000000000000000 F F F
  0.7500000000000000  0.0000000000000000  0.7500000000000000 F F F
  0.1250000000000000  0.5000000000000000  0.5000000000000000 F F F
  0.0000000000000000  0.3333330000000000  0.7500000000000000 F F F
  0.3750000000000000  0.5000000000000000  0.5000000000000000 F F F
  0.2500000000000000  0.3333330000000000  0.7500000000000000 F F F
  0.6250000000000000  0.5000000000000000  0.5000000000000000 F F F
  0.5000000000000000  0.3333330000000000  0.7500000000000000 F F F
  0.8750000000000000  0.5000000000000000  0.5000000000000000 F F F
  0.7500000000000000  0.3333330000000000  0.7500000000000000 F F F
  0.1250000000000000  0.8333330000000000  0.5000000000000000 F F F
  0.0000000000000000  0.6666670000000000  0.7500000000000000 F F F
  0.3750000000000000  0.8333330000000000  0.5000000000000000 F F F
  0.2500000000000000  0.6666670000000000  0.7500000000000000 F F F
  0.6250000000000000  0.8333330000000000  0.5000000000000000 F F F
  0.5000000000000000  0.6666670000000000  0.7500000000000000 F F F
  0.8750000000000000  0.8333330000000000  0.5000000000000000 F F F
  0.7500000000000000  0.6666670000000000  0.7500000000000000 F F F
